NAME : in_house_7_15
TYPE : TSP
DIMENSION : 7
EDGE_WEIGHT_TYPE : EXPLICIT
EDGE_WEIGHT_FORMAT : UPPER_ROW
COMMENT : INVERSION_SHIFT=4
EDGE_WEIGHT_SECTION
21
12
46
4
31
43
41
13
48
39
18
36
31
35
7
36
42
49
24
9
45
